NAME /Users/henri/Research/solvers/instances/idol-instances/robust/collection/cbp_Subramanyam_et_al_2020/CapBud_N5_13/models/uncertain_technology_matrix/
ROWS
 N  OBJ
 L  capacity
 L  c_275
 L  c_276
 L  c_277
 L  c_278
 L  c_279
COLUMNS
    MARKER    'MARKER'                 'INTORG'
    x_0        OBJ        8.78493
    x_0        c_275      1
    x_0        capacity   1.75699
    x_1        OBJ        4.34156
    x_1        c_276      1
    x_1        capacity   0.868311
    x_2        OBJ        5.17612
    x_2        c_277      1
    x_2        capacity   1.03522
    x_3        OBJ        4.74668
    x_3        c_278      1
    x_3        capacity   0.949336
    x_4        OBJ        1.84363
    x_4        c_279      1
    x_4        capacity   0.368725
    y_0        OBJ        7.02794
    y_0        c_275      1
    y_0        capacity   1.75699
    y_1        OBJ        3.47324
    y_1        c_276      1
    y_1        capacity   0.868311
    y_2        OBJ        4.1409
    y_2        c_277      1
    y_2        capacity   1.03522
    y_3        OBJ        3.79734
    y_3        c_278      1
    y_3        capacity   0.949336
    y_4        OBJ        1.4749
    y_4        c_279      1
    y_4        capacity   0.368725
    MARKER    'MARKER'                 'INTEND'
RHS
    RHS       capacity   12.4465
    RHS       c_275      1
    RHS       c_276      1
    RHS       c_277      1
    RHS       c_278      1
    RHS       c_279      1
BOUNDS
 LI BND       x_0        0
 UI BND       x_0        1
 LI BND       x_1        0
 UI BND       x_1        1
 LI BND       x_2        0
 UI BND       x_2        1
 LI BND       x_3        0
 UI BND       x_3        1
 LI BND       x_4        0
 UI BND       x_4        1
 LI BND       y_0        0
 UI BND       y_0        1
 LI BND       y_1        0
 UI BND       y_1        1
 LI BND       y_2        0
 UI BND       y_2        1
 LI BND       y_3        0
 UI BND       y_3        1
 LI BND       y_4        0
 UI BND       y_4        1
ENDATA
